n1 = 5;
adjacent1 = [| 0, 0, 0, 0, 1
| 0, 0, 0, 0, 0
| 0, 0, 0, 1, 0
| 0, 0, 1, 0, 0
| 1, 0, 0, 0, 0 |];
n2 = 5;
adjacent2 = [| 0, 0, 1, 1, 1
| 0, 0, 1, 1, 0
| 1, 1, 0, 0, 0
| 1, 1, 0, 0, 0
| 1, 0, 0, 0, 0 |];
vertexDeletionCost = [45, 45, 45, 45, 45];
vertexInsertionCost = [45, 45, 45, 45, 45];
vertexSubstitutionCost = [| 90, 26.61766330841233, 90, 90, 90
| 90, 90, 90, 90, 90
| 90, 90, 59.052942348370756, 90, 90
| 90, 57.83165223301164, 90, 90, 90
| 90, 90, 29.3981291921782, 90, 90 |];
edgeDeletionCost = [| 0.0, 0.0, 0.0, 0.0, 15.0
| 0.0, 0.0, 0.0, 0.0, 0.0
| 0.0, 0.0, 0.0, 15.0, 0.0
| 0.0, 0.0, 15.0, 0.0, 0.0
| 15.0, 0.0, 0.0, 0.0, 0.0 |];
edgeInsertionCost = [| 0.0, 0.0, 7.5, 7.5, 7.5
| 0.0, 0.0, 7.5, 7.5, 0.0
| 7.5, 7.5, 0.0, 0.0, 0.0
| 7.5, 7.5, 0.0, 0.0, 0.0
| 7.5, 0.0, 0.0, 0.0, 0.0 |];
edgeSubstitutionCost = array4d(1..n1, 1..n1, 1..n2, 1..n2, [0, 0, 7.5, 7.5, 7.5, 0, 0, 7.5, 7.5, 0, 7.5, 7.5, 0, 0, 0, 7.5, 7.5, 0, 0, 0, 7.5, 0, 0, 0, 0, 0, 0, 7.5, 7.5, 7.5, 0, 0, 7.5, 7.5, 0, 7.5, 7.5, 0, 0, 0, 7.5, 7.5, 0, 0, 0, 7.5, 0, 0, 0, 0, 0, 0, 7.5, 7.5, 7.5, 0, 0, 7.5, 7.5, 0, 7.5, 7.5, 0, 0, 0, 7.5, 7.5, 0, 0, 0, 7.5, 0, 0, 0, 0, 0, 0, 7.5, 7.5, 7.5, 0, 0, 7.5, 7.5, 0, 7.5, 7.5, 0, 0, 0, 7.5, 7.5, 0, 0, 0, 7.5, 0, 0, 0, 0, 15.0, 15.0, 7.5, 7.5, 7.5, 15.0, 15.0, 7.5, 7.5, 15.0, 7.5, 7.5, 15.0, 15.0, 15.0, 7.5, 7.5, 15.0, 15.0, 15.0, 7.5, 15.0, 15.0, 15.0, 15.0, 0, 0, 7.5, 7.5, 7.5, 0, 0, 7.5, 7.5, 0, 7.5, 7.5, 0, 0, 0, 7.5, 7.5, 0, 0, 0, 7.5, 0, 0, 0, 0, 0, 0, 7.5, 7.5, 7.5, 0, 0, 7.5, 7.5, 0, 7.5, 7.5, 0, 0, 0, 7.5, 7.5, 0, 0, 0, 7.5, 0, 0, 0, 0, 0, 0, 7.5, 7.5, 7.5, 0, 0, 7.5, 7.5, 0, 7.5, 7.5, 0, 0, 0, 7.5, 7.5, 0, 0, 0, 7.5, 0, 0, 0, 0, 0, 0, 7.5, 7.5, 7.5, 0, 0, 7.5, 7.5, 0, 7.5, 7.5, 0, 0, 0, 7.5, 7.5, 0, 0, 0, 7.5, 0, 0, 0, 0, 0, 0, 7.5, 7.5, 7.5, 0, 0, 7.5, 7.5, 0, 7.5, 7.5, 0, 0, 0, 7.5, 7.5, 0, 0, 0, 7.5, 0, 0, 0, 0, 0, 0, 7.5, 7.5, 7.5, 0, 0, 7.5, 7.5, 0, 7.5, 7.5, 0, 0, 0, 7.5, 7.5, 0, 0, 0, 7.5, 0, 0, 0, 0, 0, 0, 7.5, 7.5, 7.5, 0, 0, 7.5, 7.5, 0, 7.5, 7.5, 0, 0, 0, 7.5, 7.5, 0, 0, 0, 7.5, 0, 0, 0, 0, 0, 0, 7.5, 7.5, 7.5, 0, 0, 7.5, 7.5, 0, 7.5, 7.5, 0, 0, 0, 7.5, 7.5, 0, 0, 0, 7.5, 0, 0, 0, 0, 15.0, 15.0, 7.5, 7.5, 7.5, 15.0, 15.0, 7.5, 7.5, 15.0, 7.5, 7.5, 15.0, 15.0, 15.0, 7.5, 7.5, 15.0, 15.0, 15.0, 7.5, 15.0, 15.0, 15.0, 15.0, 0, 0, 7.5, 7.5, 7.5, 0, 0, 7.5, 7.5, 0, 7.5, 7.5, 0, 0, 0, 7.5, 7.5, 0, 0, 0, 7.5, 0, 0, 0, 0, 0, 0, 7.5, 7.5, 7.5, 0, 0, 7.5, 7.5, 0, 7.5, 7.5, 0, 0, 0, 7.5, 7.5, 0, 0, 0, 7.5, 0, 0, 0, 0, 0, 0, 7.5, 7.5, 7.5, 0, 0, 7.5, 7.5, 0, 7.5, 7.5, 0, 0, 0, 7.5, 7.5, 0, 0, 0, 7.5, 0, 0, 0, 0, 15.0, 15.0, 7.5, 7.5, 7.5, 15.0, 15.0, 7.5, 7.5, 15.0, 7.5, 7.5, 15.0, 15.0, 15.0, 7.5, 7.5, 15.0, 15.0, 15.0, 7.5, 15.0, 15.0, 15.0, 15.0, 0, 0, 7.5, 7.5, 7.5, 0, 0, 7.5, 7.5, 0, 7.5, 7.5, 0, 0, 0, 7.5, 7.5, 0, 0, 0, 7.5, 0, 0, 0, 0, 0, 0, 7.5, 7.5, 7.5, 0, 0, 7.5, 7.5, 0, 7.5, 7.5, 0, 0, 0, 7.5, 7.5, 0, 0, 0, 7.5, 0, 0, 0, 0, 15.0, 15.0, 7.5, 7.5, 7.5, 15.0, 15.0, 7.5, 7.5, 15.0, 7.5, 7.5, 15.0, 15.0, 15.0, 7.5, 7.5, 15.0, 15.0, 15.0, 7.5, 15.0, 15.0, 15.0, 15.0, 0, 0, 7.5, 7.5, 7.5, 0, 0, 7.5, 7.5, 0, 7.5, 7.5, 0, 0, 0, 7.5, 7.5, 0, 0, 0, 7.5, 0, 0, 0, 0, 0, 0, 7.5, 7.5, 7.5, 0, 0, 7.5, 7.5, 0, 7.5, 7.5, 0, 0, 0, 7.5, 7.5, 0, 0, 0, 7.5, 0, 0, 0, 0, 0, 0, 7.5, 7.5, 7.5, 0, 0, 7.5, 7.5, 0, 7.5, 7.5, 0, 0, 0, 7.5, 7.5, 0, 0, 0, 7.5, 0, 0, 0, 0, 0, 0, 7.5, 7.5, 7.5, 0, 0, 7.5, 7.5, 0, 7.5, 7.5, 0, 0, 0, 7.5, 7.5, 0, 0, 0, 7.5, 0, 0, 0, 0]);
